50 8
315 442
852 703
859 682
559 882
205 755
603 418
675 439
675 287
672 422
275 561
39 409
523 559
516 636
47 280
120 448
244 647
566 645
395 514
504 252
402 448
123 399
710 469
391 575
940 687
73 296
213 604
495 946
834 626
269 471
170 731
524 745
116 436
670 323
260 799
84 313
442 270
568 252
254 656
126 770
778 721
610 536
566 291
603 421
651 405
127 468
856 548
759 412
303 461
873 690
609 265
